
Gurobi 11.0.3 (linux64) logging started Mon Aug 25 15:10:34 2025

Set parameter LogFile to value "/home/yihong/Coding/OR_SUC/SUC_epstheta_results_bigM100000_thread4/case24_ieee_rts_theta0.1_epsilon0.1_gurobi_seed160000_num_gen100_N_WDR50_load_scaling_factor1_proposed_theta_T14quadra_cost_bc1.01.txt"
Set parameter TimeLimit to value 3600
Gurobi Optimizer version 11.0.3 build v11.0.3rc0 (linux64 - "Ubuntu 20.04.6 LTS")

CPU model: AMD EPYC 7532 32-Core Processor, instruction set [SSE2|AVX|AVX2]
Thread count: 64 physical cores, 128 logical processors, using up to 4 threads

Academic license 2399124 - for non-commercial use only - registered to yi___@ed.ac.uk
Optimize a model with 33318 rows, 17411 columns and 766758 nonzeros
Model fingerprint: 0xb1ea24a2
Model has 1400 quadratic constraints
Variable types: 16011 continuous, 1400 integer (1400 binary)
Coefficient statistics:
  Matrix range     [3e-04, 3e+03]
  QMatrix range    [2e-03, 8e-03]
  QLMatrix range   [9e-02, 6e+01]
  Objective range  [1e+00, 1e+00]
  Bounds range     [1e+00, 1e+00]
  RHS range        [1e+00, 9e+03]
Presolve removed 27303 rows and 7463 columns
Presolve time: 0.32s
Presolved: 6015 rows, 9948 columns, 33144 nonzeros
Presolved model has 1400 quadratic constraint(s)
Variable types: 8548 continuous, 1400 integer (1400 binary)

Root relaxation: objective 1.567091e+04, 4798 iterations, 0.16 seconds (0.15 work units)

    Nodes    |    Current Node    |     Objective Bounds      |     Work
 Expl Unexpl |  Obj  Depth IntInf | Incumbent    BestBd   Gap | It/Node Time

     0     0 15670.9059    0   14          - 15670.9059      -     -    0s
     0     0 168243.531    0  412          - 168243.531      -     -    0s
     0     0 336113.289    0  378          - 336113.289      -     -    1s
     0     0 336126.254    0  266          - 336126.254      -     -    1s
     0     0 336301.427    0  198          - 336301.427      -     -    1s
     0     0 336305.568    0  198          - 336305.568      -     -    1s
     0     0 336307.001    0  198          - 336307.001      -     -    1s
     0     2 336311.099    0  198          - 336311.099      -     -    2s
H  320   359                    336391.74629 336313.742  0.02%  10.2    3s
*  320   359             109    336391.74629 336313.742  0.02%  10.5    3s

Cutting planes:
  Gomory: 16
  Implied bound: 346
  MIR: 40
  Flow cover: 109
  RLT: 6

Explored 435 nodes (16685 simplex iterations) in 4.16 seconds (3.66 work units)
Thread count was 4 (of 128 available processors)

Solution count 2: 336392 336392 

Optimal solution found (tolerance 1.00e-03)
Warning: max constraint violation (3.2621e-07) exceeds tolerance
Best objective 3.363917462908e+05, best bound 3.363137423188e+05, gap 0.0232%

Gurobi 11.0.3 (linux64) logging started Mon Aug 25 15:10:39 2025

Set parameter LogFile to value "/home/yihong/Coding/OR_SUC/SUC_epstheta_results_bigM100000_thread4/case24_ieee_rts_theta0.1_epsilon0.1_gurobi_seed160000_num_gen100_N_WDR50_load_scaling_factor1_proposed_theta_T14quadra_cost_bc1.01.txt"
Set parameter TimeLimit to value 3600
Gurobi Optimizer version 11.0.3 build v11.0.3rc0 (linux64 - "Ubuntu 20.04.6 LTS")

CPU model: AMD EPYC 7532 32-Core Processor, instruction set [SSE2|AVX|AVX2]
Thread count: 64 physical cores, 128 logical processors, using up to 4 threads

Academic license 2399124 - for non-commercial use only - registered to yi___@ed.ac.uk
Optimize a model with 33319 rows, 17412 columns and 771099 nonzeros
Model fingerprint: 0x1528740c
Model has 1400 quadratic constraints
Variable types: 16012 continuous, 1400 integer (1400 binary)
Coefficient statistics:
  Matrix range     [3e-04, 3e+03]
  QMatrix range    [2e-03, 8e-03]
  QLMatrix range   [9e-02, 6e+01]
  Objective range  [1e+00, 1e+00]
  Bounds range     [1e-01, 1e+00]
  RHS range        [1e+00, 3e+05]
Presolve removed 24751 rows and 6186 columns
Presolve time: 0.40s
Presolved: 8568 rows, 11226 columns, 45228 nonzeros
Presolved model has 1400 quadratic constraint(s)
Variable types: 9824 continuous, 1402 integer (1402 binary)

Root relaxation: objective 1.021071e+01, 9773 iterations, 0.35 seconds (0.28 work units)

    Nodes    |    Current Node    |     Objective Bounds      |     Work
 Expl Unexpl |  Obj  Depth IntInf | Incumbent    BestBd   Gap | It/Node Time

     0     0   10.21071    0    2          -   10.21071      -     -    0s
     0     0    3.19813    0   18          -    3.19813      -     -    2s
     0     0    3.19805    0   18          -    3.19805      -     -    2s
     0     0    0.29651    0   17          -    0.29651      -     -    2s
     0     0    0.29610    0   17          -    0.29610      -     -    3s
     0     0    0.29303    0   17          -    0.29303      -     -    3s
     0     0    0.29274    0   17          -    0.29274      -     -    3s
     0     0    0.29268    0   17          -    0.29268      -     -    3s
H    0     0                       0.2039891    0.29268  43.5%     -    6s
     0     2    0.29268    0   17    0.20399    0.29268  43.5%     -    7s
H   27    32                       0.2690157    0.29220  8.62%  44.3    9s
    57    62    0.29027   14   14    0.26902    0.29220  8.62%  35.4   10s
H  176   138                       0.2902898    0.29217  0.65%  36.1   13s
H  194   119                       0.2904048    0.29187  0.51%  34.1   13s
*  194   119               7       0.2904048    0.29187  0.51%  34.9   13s
H  220    85                       0.2907326    0.29176  0.35%  33.0   14s
*  220    85               8       0.2907326    0.29176  0.35%  33.2   14s
H  258    36                       0.2916905    0.29169  0.00%  30.1   14s
*  258    36              18       0.2916905    0.29169  0.00%  30.1   14s

Cutting planes:
  Implied bound: 4
  MIR: 2
  Flow cover: 6
  RLT: 1

Explored 310 nodes (28343 simplex iterations) in 14.35 seconds (17.69 work units)
Thread count was 4 (of 128 available processors)

Solution count 6: 0.29169 0.290733 0.290405 ... 0.203989

Optimal solution found (tolerance 1.00e-03)
Warning: max constraint violation (1.8795e-09) exceeds tolerance
Best objective 2.916904685483e-01, best bound 2.916912995036e-01, gap 0.0003%
